2003763
0 1 106843
1 2 14476
2 16 528307
16 12 390281
12 10 255155
10 19 414083
19 4 371498
4 17 282998
17 13 306765
13 7 194742
7 14 123742
14 18 95140
18 3 225006
3 15 122602
15 9 157592
9 5 317482
5 11 136280
11 8 256748
8 6 354491
6 0 271352